10J3M/DAT/10J3MNLX-18.dat
10 3
32.1258 5.668
29.5218 5.4334
23.6847 4.8667
26.7976 5.1766
25.3791 5.0378
29.068 5.3915
25.1939 5.0194
25.5939 5.059
25.1803 5.018
23.0257 4.7985
17.1563