10J3M/SOL/10J3MNLX-18.sol
solution status: optimal solution found
objective value:                              88.5236
x#1#1                               0.771553075111386 	(obj:0)
x#1#3                               0.228446924888614 	(obj:0)
x#2#3                                               1 	(obj:0)
x#3#1                               0.564188704927089 	(obj:0)
x#3#3                               0.435811295072911 	(obj:0)
x#4#2                                               1 	(obj:0)
x#5#2                                0.66248118660991 	(obj:0)
x#5#3                                0.33751881339009 	(obj:0)
x#6#2                               0.664611384233812 	(obj:0)
x#6#3                               0.335388615766188 	(obj:0)
x#7#1                                               1 	(obj:0)
x#8#2                                               1 	(obj:0)
x#9#1                                               1 	(obj:0)
x#10#3                                              1 	(obj:0)
z                                             88.5236 	(obj:1)
